0
1
2
3
4
5
6
7
8
9
10
11
12
13
18
17
16
15
14
193
192
191
190
189
198
197
196
195
194
229
228
227
226
225
230
231
260
261
262
259
258
257
256
255
254
253
252
251
250
249
248
247
246
245
244
243
242
241
240
239
238
237
236
235
234
232
233
224
223
222
221
220
219
218
217
216
215
214
213
208
209
210
211
212
207
206
205
204
203
202
201
200
199
188
187
186
185
184
183
182
181
180
179
178
177
176
175
174
173
172
171
170
169
168
167
166
165
163
164
162
161
160
159
158
157
156
155
154
153
152
151
150
149
148
147
146
145
144
143
141
142
140
139
138
137
136
135
134
133
132
131
130
129
128
127
126
125
124
123
122
121
120
118
119
116
117
114
113
110
109
106
105
102
101
98
97
94
93
90
89
88
91
92
95
96
99
100
103
104
107
108
111
112
115
19
20
21
22
23
24
25
26
27
28
30
29
31
32
33
34
36
35
37
38
39
40
42
41
43
44
45
46
48
47
49
50
51
52
54
53
55
67
68
71
72
75
76
79
80
83
84
87
86
85
82
81
78
77
74
73
70
69
66
65
64
63
62
61
60
59
58
56
57
